Data path: /scratch/opt/lxu/CFLG/benchmarks/tree_B
Instance: treeB.30.1
Result path: /scratch/opt/lxu/CFLG/results/tree_B
Solver: Gurobi
Time limit: 7200
Formulation: LEVFP
Cover: Large
julia --project=. src/main.jl /scratch/opt/lxu/CFLG/benchmarks/tree_B treeB.30.1 /scratch/opt/lxu/CFLG/results/tree_B Gurobi 7200 LEVFP Large
The latest version of Julia in the `release` channel is 1.11.6+0.x64.linux.gnu. You currently have `1.11.4+0.x64.linux.gnu` installed. Run:

  juliaup update

in your terminal shell to install Julia 1.11.6+0.x64.linux.gnu and update the `release` channel to that version.
/scratch/opt/lxu/CFLG/benchmarks/tree_B Gurobi 7200.0 /scratch/opt/lxu/CFLG/results/tree_B treeB.30.1 LEVFP Large
/scratch/opt/lxu/CFLG/benchmarks/tree_B/treeB.30.1

 read graph
data loaded

problem_graph/original graph: node: 30/30 edge: 30/30 dlt: 2.9766661178149247 break_avg_len: 1.4883330589074624 break_max_len: 1.9852215206607577elapsed CPU time: 0.022311 seconds
Set parameter TokenServer to value "solice01.zib.de"
Set parameter Threads to value 1
Set parameter OutputFlag to value 1
Set parameter MIPGap to value 0.0001
Set parameter TimeLimit to value 7199.977689

 model loaded

Gurobi Optimizer version 12.0.1 build v12.0.1rc0 (linux64 - "Debian GNU/Linux 12 (bookworm)")

CPU model: Intel(R) Xeon(R) Gold 5222 CPU @ 3.80GHz, instruction set [SSE2|AVX|AVX2|AVX512]
Thread count: 8 physical cores, 16 logical processors, using up to 1 threads

Non-default parameters:
TimeLimit  7199.977689
Threads  1

Optimize a model with 1296 rows, 580 columns and 3516 nonzeros
Model fingerprint: 0xa9d45442
Variable types: 60 continuous, 520 integer (520 binary)
Coefficient statistics:
  Matrix range     [1e-06, 4e+00]
  Objective range  [1e+00, 1e+00]
  Bounds range     [1e+00, 2e+00]
  RHS range        [1e+00, 4e+00]
Found heuristic solution: objective 18.0000000
Presolve removed 409 rows and 84 columns
Presolve time: 0.05s
Presolved: 887 rows, 496 columns, 4664 nonzeros
Variable types: 56 continuous, 440 integer (440 binary)

Root relaxation: objective 7.000000e+00, 333 iterations, 0.01 seconds (0.01 work units)

    Nodes    |    Current Node    |     Objective Bounds      |     Work
 Expl Unexpl |  Obj  Depth IntInf | Incumbent    BestBd   Gap | It/Node Time

*    0     0               0       7.0000000    7.00000  0.00%     -    0s

Explored 1 nodes (586 simplex iterations) in 0.07 seconds (0.06 work units)
Thread count was 1 (of 16 available processors)

Solution count 2: 7 18 

Optimal solution found (tolerance 1.00e-04)
Best objective 7.000000000000e+00, best bound 7.000000000000e+00, gap 0.0000%

User-callback calls 818, time in user-callback 0.00 sec
Stat(MathOptInterface.OPTIMAL, 7.0, 7.0, 0.0, 0.0, 0.022311, 0.06788110733032227, 1, Main.CFLG.LEVFP, "", #undef)
ERROR: LoadError: SystemError: opening file "/scratch/opt/lxu/CFLG/results/tree_B/treeB.30.1.LEVFP.Large": No such file or directory
Stacktrace:
 [1] systemerror(p::String, errno::Int32; extrainfo::Nothing)
   @ Base ./error.jl:176
 [2] systemerror
   @ ./error.jl:175 [inlined]
 [3] open(fname::String; lock::Bool, read::Nothing, write::Nothing, create::Nothing, truncate::Bool, append::Nothing)
   @ Base ./iostream.jl:295
 [4] open
   @ ./iostream.jl:277 [inlined]
 [5] open(fname::String, mode::String; lock::Bool)
   @ Base ./iostream.jl:358
 [6] open
   @ ./iostream.jl:357 [inlined]
 [7] main(args::Vector{String})
   @ Main /scratch/opt/lxu/CFLG/src/main.jl:51
 [8] top-level scope
   @ /scratch/opt/lxu/CFLG/src/main.jl:57
in expression starting at /scratch/opt/lxu/CFLG/src/main.jl:57
srun: error: htc-cmp481: task 0: Exited with exit code 1
